Route #1: 33 11 55 20 31 30 34 54 2
Route #2: 19 43 23 22 50 38 9 12 40 28
Route #3: 42 4 47 37 25
Route #4: 6 15 7 17 5 44 14 51
Route #5: 45 29 39 26 21 35 16 1
Route #6: 3 13 49 36 32 48 27 52
Route #7: 41 24 46 8 10 18 53
cost 792.31640625